minizinc/sudoku_problems2/sudoku_p65.dzn
%
% sudoku_p65.dzn
% See http://www.hakank.org/minizinc/sudoku_gcc.mzn
% 
% This problem is problem 65 from
% Gecode's sudoku.cpp
% http://www.gecode.org/gecode-doc-latest/sudoku_8cpp-source.html
% 
x = array2d(1..n, 1..n, [   
% http://janko.at/Raetsel/Sudoku/512.a.htm
% 65
  _,  _,  _,  _, 16,  5, 13,  _, 12,  1,  _,  _,  _, 11,  2,  _,
  6,  _,  _,  _, 14,  _, 11, 12,  _, 16,  _,  _, 13,  8,  _,  _,
 13,  1,  3, 12,  _,  _,  7,  _,  _,  4,  _,  _,  5, 16,  _,  _,
  _,  7,  2, 11,  4,  8,  _,  _,  5,  _,  6,  _, 12,  9,  _,  _,
  _,  _,  _,  _, 11,  9, 14,  _,  _,  _,  _, 15,  4,  _,  1,  2,
  _,  _,  _, 10,  _,  _, 15, 13,  7, 11,  _, 12,  8,  _,  _,  3,
 14,  6, 15,  _,  _,  1,  _,  _,  _,  _, 16,  3,  _, 13, 11,  9,
 11,  _,  _,  4,  _,  2,  _,  8,  9,  _,  1,  _,  _,  _, 16,  _,
  _,  5,  _,  _,  _,  7,  _, 14, 13,  _, 12,  _, 16,  _,  _,  8,
 12,  9, 13,  _,  1,  4,  _,  _,  _,  _, 14,  _,  _, 10,  3,  5,
  8,  _,  _,  2, 13,  _,  5,  9,  1, 10,  _,  _,  6,  _,  _,  _,
  7, 16,  _,  3,  6,  _,  _,  _,  _,  2,  5,  9,  _,  _,  _,  _,
  _,  _,  6, 13,  _, 14,  _,  5,  _,  _, 11,  4, 10,  2,  7,  _,
  _,  _,  9,  5,  _,  _,  2,  _,  _,  8,  _,  _, 11,  3, 13,  4,
  _,  _,  7, 16,  _,  _,  4,  _,  6, 14,  _,  5,  _,  _,  _, 15,
  _, 11,  8,  _,  _,  _,  9,  7,  _, 12,  3,  2,  _,  _,  _,  _
]);

n = 16;


